GaAs
1.0
        4.0659928322         0.0000000000         0.0000000000
        2.0329964161         3.5212530843         0.0000000000
        2.0329964161         1.1737510281         3.3198692456
   Ga   As
    1    1
Direct
     0.000000000         0.000000000         0.000000000
     0.250000000         0.250000000         0.250000000
