num_wann  = 6
num_bands = 36

begin projections
Ga:l=1
As:l=1
end projections

# spinors = .true.

###############
#     W90     #
###############
dis_win_max       = 16.0
dis_froz_max      =  7.17
dis_froz_min      = -3.5
dis_win_min       = -3.5

num_iter          = 1000
num_print_cycles  =   40
dis_num_iter      = 5000
dis_mix_ratio     =  1.0

###############
#  Band Plot  #
###############   # restart = plot
write_hr          = true
bands_plot        = true
bands_num_points  = 151 
bands_plot_format = gnuplot

Begin Kpoint_Path
G      0.00000     0.00000     0.00000  X      0.50000     0.00000     0.50000
X      0.50000     0.00000     0.50000  W      0.50000     0.25000     0.75000
W      0.50000     0.25000     0.75000  K      0.37500     0.37500     0.75000
K      0.37500     0.37500     0.75000  G      0.00000     0.00000     0.00000
G      0.00000     0.00000     0.00000  L      0.50000     0.50000     0.50000
L      0.50000     0.50000     0.50000  U      0.67500     0.25000     0.67500
U      0.67500     0.25000     0.67500  W      0.50000     0.25000     0.75000
W      0.50000     0.25000     0.75000  L      0.50000     0.50000     0.50000
L      0.50000     0.50000     0.50000  K      0.37500     0.37500     0.75000
U      0.67500     0.25000     0.67500  X      0.50000     0.00000     0.50000
End Kpoint_Path

begin unit_cell_cart
     4.0659928     0.0000000     0.0000000
     2.0329964     3.5212531     0.0000000
     2.0329964     1.1737510     3.3198692
end unit_cell_cart

begin atoms_cart
Ga       0.0000000     0.0000000     0.0000000
As       2.0329964     1.1737510     0.8299673
end atoms_cart

mp_grid =    15    15    15

begin kpoints
      0.000000000000      0.000000000000      0.000000000000
      0.066666666667     -0.000000000000     -0.000000000000
      0.133333333333      0.000000000000     -0.000000000000
      0.200000000000     -0.000000000000     -0.000000000000
      0.266666666667     -0.000000000000     -0.000000000000
      0.333333333333     -0.000000000000     -0.000000000000
      0.400000000000     -0.000000000000     -0.000000000000
      0.466666666667     -0.000000000000     -0.000000000000
      0.066666666667      0.066666666667     -0.000000000000
      0.133333333333      0.066666666667     -0.000000000000
      0.200000000000      0.066666666667     -0.000000000000
      0.266666666667      0.066666666667     -0.000000000000
      0.333333333333      0.066666666667     -0.000000000000
      0.400000000000      0.066666666667     -0.000000000000
      0.466666666667      0.066666666667     -0.000000000000
     -0.466666666667      0.066666666667      0.000000000000
     -0.400000000000      0.066666666667      0.000000000000
     -0.333333333333      0.066666666667      0.000000000000
     -0.266666666667      0.066666666667      0.000000000000
     -0.200000000000      0.066666666667      0.000000000000
     -0.133333333333      0.066666666667     -0.000000000000
     -0.066666666667      0.066666666667      0.000000000000
      0.133333333333      0.133333333333      0.000000000000
      0.200000000000      0.133333333333     -0.000000000000
      0.266666666667      0.133333333333     -0.000000000000
      0.333333333333      0.133333333333     -0.000000000000
      0.400000000000      0.133333333333     -0.000000000000
      0.466666666667      0.133333333333     -0.000000000000
     -0.466666666667      0.133333333333     -0.000000000000
     -0.400000000000      0.133333333333      0.000000000000
     -0.333333333333      0.133333333333      0.000000000000
     -0.266666666667      0.133333333333      0.000000000000
     -0.200000000000      0.133333333333      0.000000000000
     -0.133333333333      0.133333333333     -0.000000000000
      0.200000000000      0.200000000000     -0.000000000000
      0.266666666667      0.200000000000     -0.000000000000
      0.333333333333      0.200000000000     -0.000000000000
      0.400000000000      0.200000000000     -0.000000000000
      0.466666666667      0.200000000000     -0.000000000000
     -0.466666666667      0.200000000000     -0.000000000000
     -0.400000000000      0.200000000000      0.000000000000
     -0.333333333333      0.200000000000      0.000000000000
     -0.266666666667      0.200000000000      0.000000000000
     -0.200000000000      0.200000000000      0.000000000000
      0.266666666667      0.266666666667     -0.000000000000
      0.333333333333      0.266666666667     -0.000000000000
      0.400000000000      0.266666666667     -0.000000000000
      0.466666666667      0.266666666667     -0.000000000000
     -0.466666666667      0.266666666667     -0.000000000000
     -0.400000000000      0.266666666667      0.000000000000
     -0.333333333333      0.266666666667      0.000000000000
     -0.266666666667      0.266666666667      0.000000000000
      0.333333333333      0.333333333333     -0.000000000000
      0.400000000000      0.333333333333     -0.000000000000
      0.466666666667      0.333333333333      0.000000000000
     -0.466666666667      0.333333333333     -0.000000000000
     -0.400000000000      0.333333333333      0.000000000000
     -0.333333333333      0.333333333333      0.000000000000
      0.400000000000      0.400000000000     -0.000000000000
      0.466666666667      0.400000000000      0.000000000000
     -0.466666666667      0.400000000000     -0.000000000000
     -0.400000000000      0.400000000000      0.000000000000
      0.466666666667      0.466666666667     -0.000000000000
     -0.466666666667      0.466666666667      0.000000000000
      0.200000000000      0.133333333333      0.066666666667
      0.266666666667      0.133333333333      0.066666666667
      0.333333333333      0.133333333333      0.066666666667
      0.400000000000      0.133333333333      0.066666666667
      0.466666666667      0.133333333333      0.066666666667
     -0.466666666667      0.133333333333      0.066666666667
      0.266666666667      0.200000000000      0.066666666667
      0.333333333333      0.200000000000      0.066666666667
      0.400000000000      0.200000000000      0.066666666667
      0.466666666667      0.200000000000      0.066666666667
     -0.466666666667      0.200000000000      0.066666666667
     -0.400000000000      0.200000000000      0.066666666667
     -0.333333333333      0.200000000000      0.066666666667
     -0.266666666667      0.200000000000      0.066666666667
     -0.200000000000      0.200000000000      0.066666666667
     -0.133333333333      0.200000000000      0.066666666667
      0.333333333333      0.266666666667      0.066666666667
      0.400000000000      0.266666666667      0.066666666667
      0.466666666667      0.266666666667      0.066666666667
     -0.466666666667      0.266666666667      0.066666666667
     -0.400000000000      0.266666666667      0.066666666667
     -0.333333333333      0.266666666667      0.066666666667
     -0.266666666667      0.266666666667      0.066666666667
     -0.200000000000      0.266666666667      0.066666666667
      0.400000000000      0.333333333333      0.066666666667
      0.466666666667      0.333333333333      0.066666666667
     -0.466666666667      0.333333333333      0.066666666667
     -0.400000000000      0.333333333333      0.066666666667
     -0.333333333333      0.333333333333      0.066666666667
     -0.266666666667      0.333333333333      0.066666666667
      0.466666666667      0.400000000000      0.066666666667
     -0.466666666667      0.400000000000      0.066666666667
     -0.400000000000      0.400000000000      0.066666666667
     -0.333333333333      0.400000000000      0.066666666667
     -0.466666666667      0.466666666667      0.066666666667
     -0.400000000000      0.466666666667      0.066666666667
      0.400000000000      0.266666666667      0.133333333333
      0.466666666667      0.266666666667      0.133333333333
     -0.466666666667      0.266666666667      0.133333333333
     -0.400000000000      0.266666666667      0.133333333333
      0.466666666667      0.333333333333      0.133333333333
     -0.466666666667      0.333333333333      0.133333333333
     -0.400000000000      0.333333333333      0.133333333333
     -0.333333333333      0.333333333333      0.133333333333
     -0.266666666667      0.333333333333      0.133333333333
     -0.200000000000      0.333333333333      0.133333333333
     -0.466666666667      0.400000000000      0.133333333333
     -0.400000000000      0.400000000000      0.133333333333
     -0.333333333333      0.400000000000      0.133333333333
     -0.266666666667      0.400000000000      0.133333333333
     -0.400000000000      0.466666666667      0.133333333333
     -0.333333333333      0.466666666667      0.133333333333
     -0.400000000000      0.400000000000      0.200000000000
     -0.333333333333      0.400000000000      0.200000000000
     -0.333333333333      0.466666666667      0.200000000000
     -0.266666666667      0.466666666667      0.200000000000
     -0.000000000000      0.066666666667     -0.000000000000
     -0.000000000000     -0.000000000000      0.066666666667
     -0.066666666667     -0.066666666667     -0.066666666667
     -0.000000000000      0.133333333333      0.000000000000
      0.000000000000     -0.000000000000      0.133333333333
     -0.133333333333     -0.133333333333     -0.133333333333
     -0.000000000000      0.200000000000     -0.000000000000
     -0.000000000000     -0.000000000000      0.200000000000
     -0.200000000000     -0.200000000000     -0.200000000000
     -0.000000000000      0.266666666667     -0.000000000000
     -0.000000000000     -0.000000000000      0.266666666667
     -0.266666666667     -0.266666666667     -0.266666666667
     -0.000000000000      0.333333333333     -0.000000000000
     -0.000000000000     -0.000000000000      0.333333333333
     -0.333333333333     -0.333333333333     -0.333333333333
     -0.000000000000      0.400000000000     -0.000000000000
     -0.000000000000     -0.000000000000      0.400000000000
     -0.400000000000     -0.400000000000     -0.400000000000
     -0.000000000000      0.466666666667     -0.000000000000
     -0.000000000000     -0.000000000000      0.466666666667
     -0.466666666667     -0.466666666667     -0.466666666667
     -0.000000000000      0.066666666667      0.066666666667
      0.066666666667     -0.000000000000      0.066666666667
     -0.066666666667     -0.066666666667     -0.000000000000
     -0.066666666667      0.000000000000     -0.066666666667
     -0.000000000000     -0.066666666667     -0.066666666667
     -0.000000000000      0.133333333333      0.066666666667
      0.066666666667     -0.000000000000      0.133333333333
     -0.066666666667     -0.066666666667      0.066666666667
     -0.133333333333     -0.066666666667     -0.133333333333
      0.066666666667      0.133333333333      0.000000000000
      0.066666666667     -0.066666666667     -0.066666666667
     -0.133333333333     -0.133333333333     -0.066666666667
      0.000000000000      0.066666666667      0.133333333333
     -0.066666666667      0.066666666667     -0.066666666667
     -0.066666666667     -0.133333333333     -0.133333333333
      0.133333333333      0.000000000000      0.066666666667
     -0.000000000000      0.200000000000      0.066666666667
      0.066666666667     -0.000000000000      0.200000000000
     -0.066666666667     -0.066666666667      0.133333333333
     -0.200000000000     -0.133333333333     -0.200000000000
      0.066666666667      0.200000000000      0.000000000000
      0.133333333333     -0.066666666667     -0.066666666667
     -0.200000000000     -0.200000000000     -0.133333333333
      0.000000000000      0.066666666667      0.200000000000
     -0.066666666667      0.133333333333     -0.066666666667
     -0.133333333333     -0.200000000000     -0.200000000000
      0.200000000000      0.000000000000      0.066666666667
     -0.000000000000      0.266666666667      0.066666666667
      0.066666666667     -0.000000000000      0.266666666667
     -0.066666666667     -0.066666666667      0.200000000000
     -0.266666666667     -0.200000000000     -0.266666666667
      0.066666666667      0.266666666667      0.000000000000
      0.200000000000     -0.066666666667     -0.066666666667
     -0.266666666667     -0.266666666667     -0.200000000000
      0.000000000000      0.066666666667      0.266666666667
     -0.066666666667      0.200000000000     -0.066666666667
     -0.200000000000     -0.266666666667     -0.266666666667
      0.266666666667      0.000000000000      0.066666666667
     -0.000000000000      0.333333333333      0.066666666667
      0.066666666667     -0.000000000000      0.333333333333
     -0.066666666667     -0.066666666667      0.266666666667
     -0.333333333333     -0.266666666667     -0.333333333333
      0.066666666667      0.333333333333      0.000000000000
      0.266666666667     -0.066666666667     -0.066666666667
     -0.333333333333     -0.333333333333     -0.266666666667
      0.000000000000      0.066666666667      0.333333333333
     -0.066666666667      0.266666666667     -0.066666666667
     -0.266666666667     -0.333333333333     -0.333333333333
      0.333333333333      0.000000000000      0.066666666667
     -0.000000000000      0.400000000000      0.066666666667
      0.066666666667     -0.000000000000      0.400000000000
     -0.066666666667     -0.066666666667      0.333333333333
     -0.400000000000     -0.333333333333     -0.400000000000
      0.066666666667      0.400000000000      0.000000000000
      0.333333333333     -0.066666666667     -0.066666666667
     -0.400000000000     -0.400000000000     -0.333333333333
      0.000000000000      0.066666666667      0.400000000000
     -0.066666666667      0.333333333333     -0.066666666667
     -0.333333333333     -0.400000000000     -0.400000000000
      0.400000000000      0.000000000000      0.066666666667
     -0.000000000000      0.466666666667      0.066666666667
      0.066666666667     -0.000000000000      0.466666666667
     -0.066666666667     -0.066666666667      0.400000000000
     -0.466666666667     -0.400000000000     -0.466666666667
      0.066666666667      0.466666666667      0.000000000000
      0.400000000000     -0.066666666667     -0.066666666667
     -0.466666666667     -0.466666666667     -0.400000000000
      0.000000000000      0.066666666667      0.466666666667
     -0.066666666667      0.400000000000     -0.066666666667
     -0.400000000000     -0.466666666667     -0.466666666667
      0.466666666667      0.000000000000      0.066666666667
      0.000000000000     -0.466666666667      0.066666666667
      0.066666666667      0.000000000000     -0.466666666667
     -0.066666666667     -0.066666666667     -0.533333333333
      0.466666666667      0.533333333333      0.466666666667
      0.066666666667     -0.466666666667     -0.000000000000
     -0.533333333333     -0.066666666667     -0.066666666667
      0.466666666667      0.466666666667      0.533333333333
     -0.000000000000      0.066666666667     -0.466666666667
     -0.066666666667     -0.533333333333     -0.066666666667
      0.533333333333      0.466666666667      0.466666666667
     -0.466666666667     -0.000000000000      0.066666666667
      0.000000000000     -0.400000000000      0.066666666667
      0.066666666667      0.000000000000     -0.400000000000
     -0.066666666667     -0.066666666667     -0.466666666667
      0.400000000000      0.466666666667      0.400000000000
      0.066666666667     -0.400000000000     -0.000000000000
     -0.466666666667     -0.066666666667     -0.066666666667
      0.400000000000      0.400000000000      0.466666666667
     -0.000000000000      0.066666666667     -0.400000000000
     -0.066666666667     -0.466666666667     -0.066666666667
      0.466666666667      0.400000000000      0.400000000000
     -0.400000000000     -0.000000000000      0.066666666667
      0.000000000000     -0.333333333333      0.066666666667
      0.066666666667      0.000000000000     -0.333333333333
     -0.066666666667     -0.066666666667     -0.400000000000
      0.333333333333      0.400000000000      0.333333333333
      0.066666666667     -0.333333333333     -0.000000000000
     -0.400000000000     -0.066666666667     -0.066666666667
      0.333333333333      0.333333333333      0.400000000000
     -0.000000000000      0.066666666667     -0.333333333333
     -0.066666666667     -0.400000000000     -0.066666666667
      0.400000000000      0.333333333333      0.333333333333
     -0.333333333333     -0.000000000000      0.066666666667
      0.000000000000     -0.266666666667      0.066666666667
      0.066666666667      0.000000000000     -0.266666666667
     -0.066666666667     -0.066666666667     -0.333333333333
      0.266666666667      0.333333333333      0.266666666667
      0.066666666667     -0.266666666667     -0.000000000000
     -0.333333333333     -0.066666666667     -0.066666666667
      0.266666666667      0.266666666667      0.333333333333
     -0.000000000000      0.066666666667     -0.266666666667
     -0.066666666667     -0.333333333333     -0.066666666667
      0.333333333333      0.266666666667      0.266666666667
     -0.266666666667     -0.000000000000      0.066666666667
      0.000000000000     -0.200000000000      0.066666666667
      0.066666666667      0.000000000000     -0.200000000000
     -0.066666666667     -0.066666666667     -0.266666666667
      0.200000000000      0.266666666667      0.200000000000
      0.066666666667     -0.200000000000     -0.000000000000
     -0.266666666667     -0.066666666667     -0.066666666667
      0.200000000000      0.200000000000      0.266666666667
     -0.000000000000      0.066666666667     -0.200000000000
     -0.066666666667     -0.266666666667     -0.066666666667
      0.266666666667      0.200000000000      0.200000000000
     -0.200000000000     -0.000000000000      0.066666666667
     -0.000000000000     -0.133333333333      0.066666666667
      0.066666666667     -0.000000000000     -0.133333333333
     -0.066666666667     -0.066666666667     -0.200000000000
      0.133333333333      0.200000000000      0.133333333333
      0.066666666667     -0.133333333333      0.000000000000
     -0.200000000000     -0.066666666667     -0.066666666667
      0.133333333333      0.133333333333      0.200000000000
      0.000000000000      0.066666666667     -0.133333333333
     -0.066666666667     -0.200000000000     -0.066666666667
      0.200000000000      0.133333333333      0.133333333333
     -0.133333333333      0.000000000000      0.066666666667
      0.000000000000     -0.066666666667      0.066666666667
      0.066666666667      0.000000000000     -0.066666666667
     -0.066666666667     -0.066666666667     -0.133333333333
      0.066666666667      0.133333333333      0.066666666667
      0.066666666667     -0.066666666667     -0.000000000000
     -0.133333333333     -0.066666666667     -0.066666666667
      0.066666666667      0.066666666667      0.133333333333
     -0.000000000000      0.066666666667     -0.066666666667
     -0.066666666667     -0.133333333333     -0.066666666667
      0.133333333333      0.066666666667      0.066666666667
     -0.066666666667     -0.000000000000      0.066666666667
      0.000000000000      0.133333333333      0.133333333333
      0.133333333333      0.000000000000      0.133333333333
     -0.133333333333     -0.133333333333      0.000000000000
     -0.133333333333     -0.000000000000     -0.133333333333
      0.000000000000     -0.133333333333     -0.133333333333
     -0.000000000000      0.200000000000      0.133333333333
      0.133333333333     -0.000000000000      0.200000000000
     -0.133333333333     -0.133333333333      0.066666666667
     -0.200000000000     -0.066666666667     -0.200000000000
      0.133333333333      0.200000000000      0.000000000000
      0.066666666667     -0.133333333333     -0.133333333333
     -0.200000000000     -0.200000000000     -0.066666666667
      0.000000000000      0.133333333333      0.200000000000
     -0.133333333333      0.066666666667     -0.133333333333
     -0.066666666667     -0.200000000000     -0.200000000000
      0.200000000000      0.000000000000      0.133333333333
     -0.000000000000      0.266666666667      0.133333333333
      0.133333333333     -0.000000000000      0.266666666667
     -0.133333333333     -0.133333333333      0.133333333333
     -0.266666666667     -0.133333333333     -0.266666666667
      0.133333333333      0.266666666667      0.000000000000
      0.133333333333     -0.133333333333     -0.133333333333
     -0.266666666667     -0.266666666667     -0.133333333333
      0.000000000000      0.133333333333      0.266666666667
     -0.133333333333      0.133333333333     -0.133333333333
     -0.133333333333     -0.266666666667     -0.266666666667
      0.266666666667      0.000000000000      0.133333333333
     -0.000000000000      0.333333333333      0.133333333333
      0.133333333333     -0.000000000000      0.333333333333
     -0.133333333333     -0.133333333333      0.200000000000
     -0.333333333333     -0.200000000000     -0.333333333333
      0.133333333333      0.333333333333      0.000000000000
      0.200000000000     -0.133333333333     -0.133333333333
     -0.333333333333     -0.333333333333     -0.200000000000
      0.000000000000      0.133333333333      0.333333333333
     -0.133333333333      0.200000000000     -0.133333333333
     -0.200000000000     -0.333333333333     -0.333333333333
      0.333333333333      0.000000000000      0.133333333333
     -0.000000000000      0.400000000000      0.133333333333
      0.133333333333     -0.000000000000      0.400000000000
     -0.133333333333     -0.133333333333      0.266666666667
     -0.400000000000     -0.266666666667     -0.400000000000
      0.133333333333      0.400000000000      0.000000000000
      0.266666666667     -0.133333333333     -0.133333333333
     -0.400000000000     -0.400000000000     -0.266666666667
      0.000000000000      0.133333333333      0.400000000000
     -0.133333333333      0.266666666667     -0.133333333333
     -0.266666666667     -0.400000000000     -0.400000000000
      0.400000000000      0.000000000000      0.133333333333
     -0.000000000000      0.466666666667      0.133333333333
      0.133333333333     -0.000000000000      0.466666666667
     -0.133333333333     -0.133333333333      0.333333333333
     -0.466666666667     -0.333333333333     -0.466666666667
      0.133333333333      0.466666666667      0.000000000000
      0.333333333333     -0.133333333333     -0.133333333333
     -0.466666666667     -0.466666666667     -0.333333333333
      0.000000000000      0.133333333333      0.466666666667
     -0.133333333333      0.333333333333     -0.133333333333
     -0.333333333333     -0.466666666667     -0.466666666667
      0.466666666667      0.000000000000      0.133333333333
     -0.000000000000     -0.466666666667      0.133333333333
      0.133333333333     -0.000000000000     -0.466666666667
     -0.133333333333     -0.133333333333     -0.600000000000
      0.466666666667      0.600000000000      0.466666666667
      0.133333333333     -0.466666666667      0.000000000000
     -0.600000000000     -0.133333333333     -0.133333333333
      0.466666666667      0.466666666667      0.600000000000
      0.000000000000      0.133333333333     -0.466666666667
     -0.133333333333     -0.600000000000     -0.133333333333
      0.600000000000      0.466666666667      0.466666666667
     -0.466666666667      0.000000000000      0.133333333333
      0.000000000000     -0.400000000000      0.133333333333
      0.133333333333      0.000000000000     -0.400000000000
     -0.133333333333     -0.133333333333     -0.533333333333
      0.400000000000      0.533333333333      0.400000000000
      0.133333333333     -0.400000000000     -0.000000000000
     -0.533333333333     -0.133333333333     -0.133333333333
      0.400000000000      0.400000000000      0.533333333333
     -0.000000000000      0.133333333333     -0.400000000000
     -0.133333333333     -0.533333333333     -0.133333333333
      0.533333333333      0.400000000000      0.400000000000
     -0.400000000000     -0.000000000000      0.133333333333
      0.000000000000     -0.333333333333      0.133333333333
      0.133333333333      0.000000000000     -0.333333333333
     -0.133333333333     -0.133333333333     -0.466666666667
      0.333333333333      0.466666666667      0.333333333333
      0.133333333333     -0.333333333333     -0.000000000000
     -0.466666666667     -0.133333333333     -0.133333333333
      0.333333333333      0.333333333333      0.466666666667
     -0.000000000000      0.133333333333     -0.333333333333
     -0.133333333333     -0.466666666667     -0.133333333333
      0.466666666667      0.333333333333      0.333333333333
     -0.333333333333     -0.000000000000      0.133333333333
      0.000000000000     -0.266666666667      0.133333333333
      0.133333333333      0.000000000000     -0.266666666667
     -0.133333333333     -0.133333333333     -0.400000000000
      0.266666666667      0.400000000000      0.266666666667
      0.133333333333     -0.266666666667     -0.000000000000
     -0.400000000000     -0.133333333333     -0.133333333333
      0.266666666667      0.266666666667      0.400000000000
     -0.000000000000      0.133333333333     -0.266666666667
     -0.133333333333     -0.400000000000     -0.133333333333
      0.400000000000      0.266666666667      0.266666666667
     -0.266666666667     -0.000000000000      0.133333333333
      0.000000000000     -0.200000000000      0.133333333333
      0.133333333333      0.000000000000     -0.200000000000
     -0.133333333333     -0.133333333333     -0.333333333333
      0.200000000000      0.333333333333      0.200000000000
      0.133333333333     -0.200000000000     -0.000000000000
     -0.333333333333     -0.133333333333     -0.133333333333
      0.200000000000      0.200000000000      0.333333333333
     -0.000000000000      0.133333333333     -0.200000000000
     -0.133333333333     -0.333333333333     -0.133333333333
      0.333333333333      0.200000000000      0.200000000000
     -0.200000000000     -0.000000000000      0.133333333333
     -0.000000000000     -0.133333333333      0.133333333333
      0.133333333333     -0.000000000000     -0.133333333333
     -0.133333333333     -0.133333333333     -0.266666666667
      0.133333333333      0.266666666667      0.133333333333
      0.133333333333     -0.133333333333      0.000000000000
     -0.266666666667     -0.133333333333     -0.133333333333
      0.133333333333      0.133333333333      0.266666666667
      0.000000000000      0.133333333333     -0.133333333333
     -0.133333333333     -0.266666666667     -0.133333333333
      0.266666666667      0.133333333333      0.133333333333
     -0.133333333333      0.000000000000      0.133333333333
     -0.000000000000      0.200000000000      0.200000000000
      0.200000000000     -0.000000000000      0.200000000000
     -0.200000000000     -0.200000000000      0.000000000000
     -0.200000000000      0.000000000000     -0.200000000000
      0.000000000000     -0.200000000000     -0.200000000000
     -0.000000000000      0.266666666667      0.200000000000
      0.200000000000     -0.000000000000      0.266666666667
     -0.200000000000     -0.200000000000      0.066666666667
     -0.266666666667     -0.066666666667     -0.266666666667
      0.200000000000      0.266666666667      0.000000000000
      0.066666666667     -0.200000000000     -0.200000000000
     -0.266666666667     -0.266666666667     -0.066666666667
      0.000000000000      0.200000000000      0.266666666667
     -0.200000000000      0.066666666667     -0.200000000000
     -0.066666666667     -0.266666666667     -0.266666666667
      0.266666666667      0.000000000000      0.200000000000
     -0.000000000000      0.333333333333      0.200000000000
      0.200000000000     -0.000000000000      0.333333333333
     -0.200000000000     -0.200000000000      0.133333333333
     -0.333333333333     -0.133333333333     -0.333333333333
      0.200000000000      0.333333333333      0.000000000000
      0.133333333333     -0.200000000000     -0.200000000000
     -0.333333333333     -0.333333333333     -0.133333333333
      0.000000000000      0.200000000000      0.333333333333
     -0.200000000000      0.133333333333     -0.200000000000
     -0.133333333333     -0.333333333333     -0.333333333333
      0.333333333333      0.000000000000      0.200000000000
     -0.000000000000      0.400000000000      0.200000000000
      0.200000000000     -0.000000000000      0.400000000000
     -0.200000000000     -0.200000000000      0.200000000000
     -0.400000000000     -0.200000000000     -0.400000000000
      0.200000000000      0.400000000000      0.000000000000
      0.200000000000     -0.200000000000     -0.200000000000
     -0.400000000000     -0.400000000000     -0.200000000000
      0.000000000000      0.200000000000      0.400000000000
     -0.200000000000      0.200000000000     -0.200000000000
     -0.200000000000     -0.400000000000     -0.400000000000
      0.400000000000      0.000000000000      0.200000000000
     -0.000000000000      0.466666666667      0.200000000000
      0.200000000000     -0.000000000000      0.466666666667
     -0.200000000000     -0.200000000000      0.266666666667
     -0.466666666667     -0.266666666667     -0.466666666667
      0.200000000000      0.466666666667      0.000000000000
      0.266666666667     -0.200000000000     -0.200000000000
     -0.466666666667     -0.466666666667     -0.266666666667
      0.000000000000      0.200000000000      0.466666666667
     -0.200000000000      0.266666666667     -0.200000000000
     -0.266666666667     -0.466666666667     -0.466666666667
      0.466666666667      0.000000000000      0.200000000000