num_wann  = 86
# num_bands = 15

begin projections
Ga:l=1
As:l=1
end projections

# spinors = .true.
