GaAs
101   ! 101 grids
Line-mode
reciprocal
   0.000   0.000   0.000   ! G
   0.500   0.000   0.500   ! X

   0.500   0.000   0.500   ! X
   0.500   0.250   0.750   ! W

   0.500   0.250   0.750   ! W
   0.375   0.375   0.750   ! K

   0.375   0.375   0.750   ! K
   0.000   0.000   0.000   ! G

   0.000   0.000   0.000   ! G
   0.500   0.500   0.500   ! L

   0.500   0.500   0.500   ! L
   0.675   0.250   0.675   ! U

   0.675   0.250   0.675   ! U
   0.500   0.250   0.750   ! W

   0.500   0.250   0.750   ! W
   0.500   0.500   0.500   ! L

   0.500   0.500   0.500   ! L
   0.375   0.375   0.750   ! K

   0.675   0.250   0.675   ! U
   0.500   0.000   0.500   ! X
