num_wann  = 8
# num_bands = 15

begin projections
Ga:l=0;l=1
As:l=0;l=1
end projections

# spinors = .true.
